DatosDZN/Instancia5_RecursosLimitados.dzn
% Archivo de datos generado automáticamente
% MinExt - Minimización del Extremismo

n = 30;
m = 6;

% Distribución inicial de personas por opinión
p = [30, 0, 0, 0, 0, 0];

% Valores de extremismo por opinión
ext = [0.0, 0.2, 0.4, 0.6, 0.8, 1.0];

% Costos extra por mover hacia opinión inicialmente vacía
ce = [100.0, 80.0, 60.0, 40.0, 20.0, 10.0];

% Matriz de costos de movimiento entre opiniones
c = array2d(1..m, 1..m, [0.0, 50.0, 60.0, 70.0, 80.0, 90.0, 45.0, 0.0, 55.0, 65.0, 75.0, 85.0, 55.0, 50.0, 0.0, 60.0, 70.0, 80.0, 65.0, 60.0, 55.0, 0.0, 65.0, 75.0, 75.0, 70.0, 65.0, 60.0, 0.0, 70.0, 85.0, 80.0, 75.0, 70.0, 65.0, 0.0]);

% Restricciones de recursos
ct = 50.0;
maxM = 3;
