MisInstancias/Instancia5_RecursosLimitados.txt
30
6
30,0,0,0,0,0
0.0,0.2,0.4,0.6,0.8,1.0
100.0,80.0,60.0,40.0,20.0,10.0
0,50.0,60.0,70.0,80.0,90.0
45.0,0,55.0,65.0,75.0,85.0
55.0,50.0,0,60.0,70.0,80.0
65.0,60.0,55.0,0,65.0,75.0
75.0,70.0,65.0,60.0,0,70.0
85.0,80.0,75.0,70.0,65.0,0
50.0
3
